c description: Random 3-CNF over 19 variables and 81 clauses
c generator: CNFgen (0.9.2)
c copyright: (C) 2012-2022 Massimo Lauria <massimo.lauria@uniroma1.it>
c url: https://massimolauria.net/cnfgen
c command line: cnfgen --output CNF_4.28/19_bit_81_809.cnf randkcnf 3 19 81
c
p cnf 19 81
-6 13 15 0
2 16 19 0
7 -9 11 0
-2 6 14 0
4 7 -19 0
7 13 -19 0
-12 -13 -19 0
-13 -14 18 0
-4 -7 -14 0
2 -8 10 0
-4 -9 12 0
-10 11 -15 0
2 -5 -10 0
4 -6 -7 0
2 10 11 0
3 6 8 0
-11 -13 -15 0
-10 -11 17 0
-2 -11 12 0
-3 -8 10 0
-1 -7 -8 0
-7 12 15 0
6 -10 11 0
3 4 12 0
7 -16 18 0
1 -5 17 0
-8 -10 19 0
-2 -3 19 0
-2 5 10 0
1 3 17 0
-9 14 -17 0
-1 4 15 0
5 -13 18 0
7 -11 -17 0
7 9 16 0
1 15 17 0
-5 -8 17 0
1 7 12 0
-7 14 -19 0
4 12 -13 0
-3 9 12 0
4 7 -18 0
-3 4 10 0
-4 -6 -15 0
7 12 -16 0
-12 -17 18 0
-1 8 -12 0
-3 -12 -18 0
10 13 -17 0
-16 -18 -19 0
4 12 -17 0
-3 -5 -15 0
-1 -7 12 0
-2 -10 19 0
7 -11 -18 0
-4 -12 -16 0
-3 11 -17 0
-9 15 -18 0
-5 8 13 0
-3 -11 17 0
-2 -8 -10 0
5 -12 -19 0
-5 13 -16 0
3 12 -13 0
1 -11 -18 0
2 -10 19 0
5 -15 -18 0
-4 7 9 0
10 12 19 0
9 14 -18 0
-11 16 19 0
-2 -4 -11 0
-11 -17 -18 0
-1 -9 -10 0
8 -9 17 0
-5 -17 18 0
1 6 13 0
9 -12 -15 0
5 -13 17 0
4 6 18 0
4 7 8 0
